Zr14 Ni20 H14                           
   1.00000000000000     
    13.2201432300717396   -0.0000000000000000    0.0000000000000008
     0.0000000000000011    6.6547289752020955    0.1944880990470511
    -0.0000000000000000    0.0105650520157893    6.6575619962371499
   Zr   Ni   H 
    14    20    14
Direct
  0.9918053707549884  0.9560558168420411  0.5374123937763531
  0.1834526909464673  0.4900785435125818  0.5942008293006885
  0.8165473090535322  0.5942008293006885  0.4900785435125818
  0.4918053707549885  0.0374123937763530  0.4560558168420411
  0.7543020318138818  0.0483426527727588  0.4913884669680609
  0.5081946292450116  0.4560558168420411  0.0374123937763530
  0.0081946292450117  0.5374123937763531  0.9560558168420411
  0.6834526909464678  0.0942008293006884  0.9900785435125823
  0.3165473090535327  0.9900785435125823  0.0942008293006884
  0.2456979681861185  0.4913884669680609  0.0483426527727588
  0.5000000000000000  0.5371520508910895  0.5371520508910895
  0.2543020318138817  0.9913884669680614  0.5483426527727587
  0.7456979681861182  0.5483426527727587  0.9913884669680614
  0.0000000000000000  0.0371520508910899  0.0371520508910899
  0.6610900950985507  0.3341060531710618  0.2827468566186190
  0.8853626840550963  0.3089912303035716  0.2637707325303463
  0.6460206517361951  0.3322289885671864  0.6707818323096718
  0.8552789242193576  0.2141319216777158  0.7989342037813167
  0.4940816961629113  0.8350450771777742  0.1005798917565327
  0.9940816961629109  0.6005798917565329  0.3350450771777742
  0.3552789242193576  0.2989342037813167  0.7141319216777160
  0.3389099049014489  0.2827468566186190  0.3341060531710618
  0.1146373159449035  0.2637707325303463  0.3089912303035716
  0.3539793482638049  0.6707818323096718  0.3322289885671864
  0.5059183038370891  0.1005798917565327  0.8350450771777742
  0.1447210757806424  0.7989342037813167  0.2141319216777158
  0.1460206517361953  0.1707818323096715  0.8322289885671863
  0.3853626840550964  0.7637707325303468  0.8089912303035711
  0.1610900950985511  0.7827468566186194  0.8341060531710617
  0.8389099049014493  0.8341060531710617  0.7827468566186194
  0.6146373159449037  0.8089912303035711  0.7637707325303468
  0.8539793482638049  0.8322289885671863  0.1707818323096715
  0.0059183038370888  0.3350450771777742  0.6005798917565329
  0.6447210757806424  0.7141319216777160  0.2989342037813167
  0.4720150784817754  0.3414092345515844  0.7703434614189788
  0.7420250332860815  0.3436574230919662  0.5038350828464754
  0.0000000000000000  0.5993513799987785  0.5993513799987785
  0.9720150784817749  0.2703434614189787  0.8414092345515843
  0.6536217508324962  0.5355491882477252  0.4707866878871304
  0.2579749667139189  0.5038350828464754  0.3436574230919662
  0.3463782491675039  0.4707866878871304  0.5355491882477252
  0.1536217508324964  0.9707866878871304  0.0355491882477248
  0.7579749667139185  0.8436574230919662  0.0038350828464752
  0.5000000000000000  0.0993513799987785  0.0993513799987785
  0.5279849215182251  0.7703434614189788  0.3414092345515844
  0.0279849215182247  0.8414092345515843  0.2703434614189787
  0.2420250332860811  0.0038350828464752  0.8436574230919662
  0.8463782491675038  0.0355491882477248  0.9707866878871304
 
  0.00000000E+00  0.00000000E+00  0.00000000E+00
  0.00000000E+00  0.00000000E+00  0.00000000E+00
  0.00000000E+00  0.00000000E+00  0.00000000E+00
  0.00000000E+00  0.00000000E+00  0.00000000E+00
  0.00000000E+00  0.00000000E+00  0.00000000E+00
  0.00000000E+00  0.00000000E+00  0.00000000E+00
  0.00000000E+00  0.00000000E+00  0.00000000E+00
  0.00000000E+00  0.00000000E+00  0.00000000E+00
  0.00000000E+00  0.00000000E+00  0.00000000E+00
  0.00000000E+00  0.00000000E+00  0.00000000E+00
  0.00000000E+00  0.00000000E+00  0.00000000E+00
  0.00000000E+00  0.00000000E+00  0.00000000E+00
  0.00000000E+00  0.00000000E+00  0.00000000E+00
  0.00000000E+00  0.00000000E+00  0.00000000E+00
  0.00000000E+00  0.00000000E+00  0.00000000E+00
  0.00000000E+00  0.00000000E+00  0.00000000E+00
  0.00000000E+00  0.00000000E+00  0.00000000E+00
  0.00000000E+00  0.00000000E+00  0.00000000E+00
  0.00000000E+00  0.00000000E+00  0.00000000E+00
  0.00000000E+00  0.00000000E+00  0.00000000E+00
  0.00000000E+00  0.00000000E+00  0.00000000E+00
  0.00000000E+00  0.00000000E+00  0.00000000E+00
  0.00000000E+00  0.00000000E+00  0.00000000E+00
  0.00000000E+00  0.00000000E+00  0.00000000E+00
  0.00000000E+00  0.00000000E+00  0.00000000E+00
  0.00000000E+00  0.00000000E+00  0.00000000E+00
  0.00000000E+00  0.00000000E+00  0.00000000E+00
  0.00000000E+00  0.00000000E+00  0.00000000E+00
  0.00000000E+00  0.00000000E+00  0.00000000E+00
  0.00000000E+00  0.00000000E+00  0.00000000E+00
  0.00000000E+00  0.00000000E+00  0.00000000E+00
  0.00000000E+00  0.00000000E+00  0.00000000E+00
  0.00000000E+00  0.00000000E+00  0.00000000E+00
  0.00000000E+00  0.00000000E+00  0.00000000E+00
  0.00000000E+00  0.00000000E+00  0.00000000E+00
  0.00000000E+00  0.00000000E+00  0.00000000E+00
  0.00000000E+00  0.00000000E+00  0.00000000E+00
  0.00000000E+00  0.00000000E+00  0.00000000E+00
  0.00000000E+00  0.00000000E+00  0.00000000E+00
  0.00000000E+00  0.00000000E+00  0.00000000E+00
  0.00000000E+00  0.00000000E+00  0.00000000E+00
  0.00000000E+00  0.00000000E+00  0.00000000E+00
  0.00000000E+00  0.00000000E+00  0.00000000E+00
  0.00000000E+00  0.00000000E+00  0.00000000E+00
  0.00000000E+00  0.00000000E+00  0.00000000E+00
  0.00000000E+00  0.00000000E+00  0.00000000E+00
  0.00000000E+00  0.00000000E+00  0.00000000E+00
  0.00000000E+00  0.00000000E+00  0.00000000E+00
