Ca4 Fe4 B4                              
   1.00000000000000     
     3.5522082882082842    0.0000000000000000    0.0000000000000000
     0.0000000000000000    7.7251195187184081    0.0000000000000000
     0.0000000000000000    0.0000000000000000    7.6235699584232970
   Ca   Fe   B 
     4     4     4
Direct
  0.9993827905375311  0.0016795150218630  0.7500000000000000
  0.0006172094624685  0.9983204849781375  0.2500000000000000
  0.9993827905375311  0.4983204849781371  0.2500000000000000
  0.0006172094624685  0.5016795150218625  0.7500000000000000
  0.4994991118686858  0.7500000000000000  0.5000000000000000
  0.5005008881313141  0.2500000000000000  0.5000000000000000
  0.5005008881313141  0.2500000000000000  0.0000000000000000
  0.4994991118686858  0.7500000000000000 -0.0000000000000000
  0.5108776728785994  0.7518143097601452  0.7500000000000000
  0.4891223271213998  0.2481856902398543  0.2500000000000000
  0.5108776728785994  0.7481856902398548  0.2500000000000000
  0.4891223271213998  0.2518143097601457  0.7500000000000000
 
  0.00000000E+00  0.00000000E+00  0.00000000E+00
  0.00000000E+00  0.00000000E+00  0.00000000E+00
  0.00000000E+00  0.00000000E+00  0.00000000E+00
  0.00000000E+00  0.00000000E+00  0.00000000E+00
  0.00000000E+00  0.00000000E+00  0.00000000E+00
  0.00000000E+00  0.00000000E+00  0.00000000E+00
  0.00000000E+00  0.00000000E+00  0.00000000E+00
  0.00000000E+00  0.00000000E+00  0.00000000E+00
  0.00000000E+00  0.00000000E+00  0.00000000E+00
  0.00000000E+00  0.00000000E+00  0.00000000E+00
  0.00000000E+00  0.00000000E+00  0.00000000E+00
  0.00000000E+00  0.00000000E+00  0.00000000E+00
