Ca3 Fe3 B3                              
   1.00000000000000     
     4.3127139999999997    0.0000000000000000    2.8847999999999998
     1.5410260000000000    4.0279939999999996    2.8847999999999998
     0.0000000000000000    0.0000000000000000    5.1886099999999997
   Ca   Fe   B 
     3     3     3
Direct
  0.4094199999999972  0.4865700000000004  0.5321300000000022
  0.4865700000000004  0.5321300000000022  0.4094199999999972
  0.5321300000000022  0.4094199999999972  0.4865700000000004
  0.0691199999999981  0.4483299999999986  0.4483299999999986
  0.4483299999999986  0.4483299999999986  0.0691199999999981
  0.4483299999999986  0.0691199999999981  0.4483299999999986
  0.0963500000000010  0.3802000000000021  0.3802000000000021
  0.3802000000000021  0.3802000000000021  0.0963500000000010
  0.3802000000000021  0.0963500000000010  0.3802000000000021
 
  0.00000000E+00  0.00000000E+00  0.00000000E+00
  0.00000000E+00  0.00000000E+00  0.00000000E+00
  0.00000000E+00  0.00000000E+00  0.00000000E+00
  0.00000000E+00  0.00000000E+00  0.00000000E+00
  0.00000000E+00  0.00000000E+00  0.00000000E+00
  0.00000000E+00  0.00000000E+00  0.00000000E+00
  0.00000000E+00  0.00000000E+00  0.00000000E+00
  0.00000000E+00  0.00000000E+00  0.00000000E+00
  0.00000000E+00  0.00000000E+00  0.00000000E+00
