Ca2 Fe2 B2                              
   1.00000000000000     
     3.5763234389938763    0.0000000000000000    0.0000000000000000
     0.0000000000000000    3.5763234389938763    0.0000000000000000
     0.0000000000000000   -0.0000000000000000    7.4814955727432588
   Ca   Fe   B 
     2     2     2
Direct
  0.5000000000000000  0.5000000000000000  0.5127175005739656
  0.5000000000000000  0.5000000000000000  0.0127175005739656
 -0.0000000000000000 -0.0000000000000000  0.7538544713548796
 -0.0000000000000000 -0.0000000000000000  0.2538544713548796
 -0.0000000000000000 -0.0000000000000000  0.0123080280711557
 -0.0000000000000000 -0.0000000000000000  0.5123080280711557
 
  0.00000000E+00  0.00000000E+00  0.00000000E+00
  0.00000000E+00  0.00000000E+00  0.00000000E+00
  0.00000000E+00  0.00000000E+00  0.00000000E+00
  0.00000000E+00  0.00000000E+00  0.00000000E+00
  0.00000000E+00  0.00000000E+00  0.00000000E+00
  0.00000000E+00  0.00000000E+00  0.00000000E+00
