Zr14 Ni20 H14
1.0
  13.6920000000000002    0.0000000000000000    0.0000000000000008
   0.0000000000000011    6.6799293464389686    0.1846154841378411
   0.0000000000000000    0.0000000000000000    6.6824800000000000
Zr Ni H
14 20 14
direct
   0.9890000000000000    0.9596000000000000    0.5234000000000000 Zr
   0.1848000000000000    0.4817000000000000    0.6135000000000000 Zr
   0.8152000000000000    0.6135000000000000    0.4817000000000000 Zr
   0.4890000000000000    0.0234000000000000    0.4596000000000000 Zr
   0.7572000000000000    0.0521000000000000    0.4945000000000000 Zr
   0.5110000000000000    0.4596000000000000    0.0234000000000000 Zr
   0.0110000000000000    0.5234000000000000    0.9596000000000000 Zr
   0.6848000000000000    0.1135000000000000    0.9817000000000000 Zr
   0.3152000000000000    0.9817000000000000    0.1135000000000000 Zr
   0.2428000000000000    0.4945000000000000    0.0521000000000000 Zr
   0.5000000000000000    0.5375000000000000    0.5375000000000000 Zr
   0.2572000000000000    0.9945000000000001    0.5521000000000000 Zr
   0.7428000000000000    0.5521000000000000    0.9945000000000001 Zr
   0.0000000000000000    0.0375000000000000    0.0375000000000000 Zr
   0.6619000000000000    0.3325000000000000    0.2953000000000000 Ni
   0.8850000000000000    0.3149000000000000    0.2685000000000000 Ni
   0.6410000000000000    0.3366000000000000    0.6408000000000000 Ni
   0.8649000000000000    0.1979000000000000    0.8038999999999999 Ni
   0.4942000000000000    0.8231000000000001    0.1167000000000000 Ni
   0.9942000000000000    0.6167000000000000    0.3231000000000000 Ni
   0.3649000000000000    0.3039000000000000    0.6979000000000000 Ni
   0.3381000000000000    0.2953000000000000    0.3325000000000000 Ni
   0.1150000000000000    0.2685000000000000    0.3149000000000000 Ni
   0.3590000000000000    0.6408000000000000    0.3366000000000000 Ni
   0.5058000000000000    0.1167000000000000    0.8231000000000001 Ni
   0.1351000000000000    0.8038999999999999    0.1979000000000000 Ni
   0.1410000000000000    0.1408000000000000    0.8366000000000000 Ni
   0.3850000000000000    0.7685000000000000    0.8149000000000000 Ni
   0.1619000000000000    0.7953000000000000    0.8325000000000000 Ni
   0.8381000000000000    0.8325000000000000    0.7953000000000000 Ni
   0.6150000000000000    0.8149000000000000    0.7685000000000000 Ni
   0.8590000000000000    0.8366000000000000    0.1408000000000000 Ni
   0.0058000000000000    0.3231000000000000    0.6167000000000000 Ni
   0.6351000000000000    0.6979000000000000    0.3039000000000000 Ni
   0.4710600000000000    0.3442900000000000    0.7693200000000000 H
   0.7410099999999999    0.3479400000000000    0.5042500000000000 H
   0.0000000000000000    0.6015800000000000    0.6015800000000000 H
   0.9710600000000000    0.2693200000000000    0.8442900000000000 H
   0.6531200000000000    0.5327300000000000    0.4682700000000000 H
   0.2589900000000000    0.5042500000000000    0.3479400000000000 H
   0.3468800000000000    0.4682700000000000    0.5327300000000000 H
   0.1531200000000000    0.9682700000000000    0.0327300000000000 H
   0.7589900000000001    0.8479400000000000    0.0042500000000000 H
   0.5000000000000000    0.1015800000000000    0.1015800000000000 H
   0.5289400000000000    0.7693200000000000    0.3442900000000000 H
   0.0289400000000000    0.8442900000000000    0.2693200000000000 H
   0.2410100000000000    0.0042500000000000    0.8479400000000000 H
   0.8468800000000000    0.0327300000000000    0.9682700000000000 H
