Ca2 Fe2 B2
1.0
3.542920 0.000000 0.000000
0.000000 3.542920 0.000000
0.000000 0.000000 7.355770
Ca Fe B
2 2 2
direct
0.500000 0.500000 0.512830 Ca
0.500000 0.500000 0.012830 Ca
0.000000 0.000000 0.752190 Fe
0.000000 0.000000 0.252190 Fe
0.000000 0.000000 0.013860 B
0.000000 0.000000 0.513860 B
