Ca4 Fe4 B4
1.0
3.416010 0.000000 0.000000
0.000000 7.366590 0.000000
0.000000 0.000000 7.283820
Ca Fe B
4 4 4
direct
0.997330 0.001160 0.750000 Ca
0.002670 0.998840 0.250000 Ca
0.997330 0.498840 0.250000 Ca
0.002670 0.501160 0.750000 Ca
0.503540 0.750000 0.500000 Fe
0.496460 0.250000 0.500000 Fe
0.496460 0.250000 0.000000 Fe
0.503540 0.750000 0.000000 Fe
0.519250 0.752820 0.750000 B
0.480750 0.247180 0.250000 B
0.519250 0.747180 0.250000 B
0.480750 0.252820 0.750000 B
