Ca2 Fe2 B2 P2
1.0
   3.4995699999999998    0.0000000000000000    0.0000000000000002
   0.0000000000000007    4.6422200000000000    0.0000000000000003
   0.0000000000000000    0.0000000000000000    7.1790300000000000
Ca Fe B P
2 2 2 2
direct
   0.0000000000000000    0.0000000000000000    0.2500000000000000 Ca
   0.0000000000000000    0.0000000000000000    0.7500000000000000 Ca
   0.5000000000000000    0.5000000000000000    0.7500000000000000 Fe
   0.5000000000000000    0.5000000000000000    0.2500000000000000 Fe
   0.5000000000000000    0.5000000000000000    0.0000000000000000 B
   0.5000000000000000    0.5000000000000000    0.5000000000000000 B
   0.0000000000000000    0.5000000000000000    0.0000000000000000 P
   0.0000000000000000    0.5000000000000000    0.5000000000000000 P
