Li2
1.0
   3.4393124531669552    0.0000000000000000    0.0000000000000002
   0.0000000000000006    3.4393124531669552    0.0000000000000002
   0.0000000000000000    0.0000000000000000    3.4393124531669552
Li
2
direct
   0.0000000000000000    0.0000000000000000    0.0000000000000000 Li
   0.5000000000000000    0.5000000000000000    0.5000000000000000 Li
