Ca3 Fe3 B3
1.0
4.312714 0.000000 2.884800
1.541026 4.027994 2.884800
0.000000 0.000000 5.188610
Ca Fe B
3 3 3
direct
0.409420 0.486570 0.532130 Ca
0.486570 0.532130 0.409420 Ca
0.532130 0.409420 0.486570 Ca
0.069120 0.448330 0.448330 Fe
0.448330 0.448330 0.069120 Fe
0.448330 0.069120 0.448330 Fe
0.096350 0.380200 0.380200 B
0.380200 0.380200 0.096350 B
0.380200 0.096350 0.380200 B
